experiment/data/lkh-res/Vrp-Set-X-n411/Vrp-Set-X-n411-lkh/0.lkh1.vrp
NAME : 0
COMMENT : CVRP Instance
TYPE : CVRP
DIMENSION : 411
EDGE_WEIGHT_TYPE : EUC_2D
CAPACITY : 216
NODE_COORD_SECTION
1	17500	82100
2	6200	49500
3	66200	95900
4	10900	21600
5	15600	74800
6	17800	95700
7	12000	57100
8	7500	48000
9	4400	9800
10	38600	100000
11	9600	46500
12	9800	79600
13	21300	64200
14	64200	97700
15	62900	89300
16	3600	12400
17	15500	17200
18	600	36700
19	3900	19800
20	4000	31100
21	64900	80100
22	20800	36700
23	23700	94400
24	28200	31300
25	11400	68400
26	6900	16800
27	2300	55300
28	13700	46700
29	24400	97100
30	8600	45600
31	12500	68100
32	7700	39800
33	12800	82000
34	16600	80400
35	65700	95900
36	16000	17200
37	67400	88200
38	25500	94400
39	70900	69100
40	16700	72000
41	18700	99500
42	24600	70700
43	9500	51800
44	4400	26400
45	26200	94000
46	73900	98700
47	21000	58600
48	24000	99400
49	19900	56400
50	10800	49100
51	83200	93300
52	71500	87400
53	13000	42600
54	51800	74900
55	9000	20900
56	76000	92500
57	11800	9200
58	7200	27000
59	60600	97600
60	12900	97500
61	15700	78700
62	62600	85700
63	16900	71200
64	10500	71000
65	10500	23300
66	6500	32200
67	68500	80400
68	21500	66400
69	21100	99600
70	33600	88700
71	72800	53300
72	64900	83600
73	9300	90500
74	14300	89400
75	4700	13600
76	19800	12500
77	70700	97700
78	68200	93700
79	1700	85800
80	37000	51200
81	22200	82500
82	5500	38800
83	18200	90500
84	4100	51000
85	12800	22100
86	26600	79600
87	34900	82100
88	10800	77700
89	9800	84200
90	22500	52800
91	14000	92000
92	13200	46500
93	13200	47800
94	12600	75400
95	14400	47600
96	13800	98100
97	12700	30200
98	16300	93700
99	1100	79400
100	66300	94200
101	13800	46400
102	2700	13400
103	21300	81900
104	15000	74600
105	18400	76000
106	12200	57900
107	18000	67000
108	16600	95500
109	11100	28400
110	22200	85900
111	10400	95100
112	16200	96800
113	7300	39400
114	62000	89900
115	19300	25700
116	5200	73700
117	65500	91400
118	11000	44000
119	23200	64800
120	64500	92200
121	20400	70800
122	5200	51200
123	16100	88700
124	4600	25900
125	15100	77700
126	19100	99900
127	12500	76600
128	24700	68600
129	6800	46400
130	500	39300
131	69600	93700
132	64200	90200
133	8600	90500
134	13200	60000
135	11500	78800
136	12600	80100
137	5800	47900
138	63700	92600
139	14700	76500
140	14500	77200
141	59200	97100
142	5800	19500
143	23600	96900
144	72900	98600
145	20400	93100
146	73100	95800
147	61600	99900
148	23400	45800
149	0	4800
150	13800	21500
151	8200	26800
152	66100	89300
153	82800	76900
154	58700	94200
155	63100	97800
156	6400	29700
157	25700	67100
158	15800	18500
159	19000	18300
160	12700	16600
161	7500	56400
162	2600	81800
163	15700	88800
164	9700	17400
165	5300	21000
166	25500	55100
167	9300	13500
168	30300	97600
169	13900	82400
170	14400	82400
171	16600	97100
172	2300	46800
173	19500	98300
174	7300	37900
175	18200	17700
176	11800	59500
177	19200	70200
178	35500	70100
179	6300	19000
180	16400	48900
181	22800	91800
182	74600	85900
183	19000	95800
184	16200	79700
185	58700	96300
186	11300	9700
187	11900	36300
188	8200	20000
189	9300	16700
190	67900	70700
191	13900	26400
192	16400	56900
193	75100	80300
194	2200	10000
195	14300	74400
196	21700	89000
197	5500	19600
198	79200	92300
199	22600	90700
200	58400	87700
201	78600	81500
202	13900	12100
203	17900	74200
204	74900	90900
205	19800	93400
206	25200	80900
207	7000	11500
208	30900	97600
209	19100	91500
210	33300	7700
211	8200	92800
212	7800	49700
213	1100	62400
214	64200	91500
215	7100	7500
216	54700	98100
217	27100	93600
218	66200	98100
219	21400	91800
220	67700	99100
221	800	27200
222	49200	81700
223	4900	23000
224	10900	24100
225	3300	51400
226	13000	27600
227	17800	96900
228	30900	96600
229	10000	44400
230	2700	50700
231	70200	93700
232	25500	94300
233	12300	13500
234	8800	40800
235	12400	77200
236	64800	97300
237	66200	95200
238	23300	83400
239	28000	82800
240	15000	75300
241	7000	33900
242	12000	91900
243	57200	98000
244	13500	81400
245	300	46400
246	3800	61800
247	7600	75500
248	3400	39900
249	8800	67100
250	2300	33600
251	20100	54400
252	73300	85000
253	3800	52700
254	4600	50200
255	68600	95200
256	65300	95800
257	77000	92000
258	15800	76900
259	21100	70900
260	9600	76100
261	19000	12000
262	51500	84100
263	10700	91500
264	18700	93200
265	3400	24100
266	10100	96800
267	22800	93800
268	15200	39700
269	16300	18800
270	84300	94200
271	20800	92200
272	16600	93100
273	45500	98400
274	60600	96200
275	55300	89400
276	34300	89400
277	22300	71700
278	14200	95700
279	69300	89900
280	11800	72500
281	35300	83800
282	5200	32800
283	1400	29500
284	77100	85000
285	15100	23100
286	20300	33000
287	7900	39100
288	15100	38700
289	9700	30800
290	28400	1400
291	15900	93200
292	26100	20400
293	6000	57000
294	9100	60700
295	1400	53200
296	18200	72800
297	20400	97800
298	74100	78600
299	11900	19100
300	11800	90400
301	14600	58300
302	16400	26300
303	5000	71800
304	5600	42000
305	5000	49300
306	26700	93400
307	74000	90400
308	2300	21200
309	4200	96700
310	61100	88900
311	23600	93200
312	42700	89200
313	900	50900
314	16900	27100
315	19700	74100
316	19900	78900
317	8200	61000
318	12300	46800
319	7000	72900
320	6300	44300
321	14200	53900
322	19600	22900
323	60200	56100
324	65000	99200
325	66300	94700
326	7300	79000
327	13500	78200
328	55600	100000
329	19600	36100
330	24000	97200
331	4200	55200
332	7200	25600
333	27100	64100
334	6900	19300
335	13800	38900
336	14000	48600
337	17300	99600
338	13800	79700
339	1000	52000
340	29700	64300
341	9200	94600
342	10400	54900
343	29000	69100
344	21300	47900
345	13100	99600
346	23300	70200
347	8200	35100
348	17700	92300
349	11800	90300
350	6900	74000
351	5900	16300
352	4800	50300
353	1400	42400
354	14700	27700
355	17000	71700
356	12900	79200
357	71900	94600
358	17600	49700
359	24500	50300
360	17400	53500
361	16700	89100
362	66800	91100
363	23600	62100
364	19700	52900
365	15200	71400
366	58500	95000
367	58700	93000
368	18200	64000
369	21900	94400
370	9800	70600
371	27800	54400
372	21600	87300
373	7600	74400
374	18900	25100
375	13800	18300
376	1200	91600
377	15000	95400
378	2000	59600
379	17800	18900
380	14400	21900
381	64300	94300
382	72800	98600
383	12500	87400
384	15800	19800
385	18100	28900
386	21500	62500
387	10700	32100
388	57100	92000
389	11000	46100
390	10100	59200
391	9600	68400
392	57900	81600
393	64500	94700
394	77700	89400
395	80600	97300
396	11800	79000
397	19500	92700
398	15700	94400
399	23500	78400
400	25600	89500
401	1500	43100
402	23300	96200
403	79300	77400
404	12700	18500
405	70400	96500
406	23400	63400
407	66400	94800
408	2900	60400
409	27800	69700
410	68600	98500
411	15100	79500
DEMAND_SECTION
1	0
2	95
3	58
4	80
5	97
6	100
7	64
8	63
9	86
10	61
11	62
12	56
13	74
14	78
15	78
16	91
17	85
18	69
19	89
20	83
21	60
22	51
23	55
24	57
25	83
26	67
27	89
28	6
29	1
30	1
31	7
32	2
33	1
34	4
35	6
36	3
37	10
38	5
39	10
40	1
41	7
42	10
43	6
44	8
45	4
46	5
47	4
48	4
49	3
50	10
51	7
52	10
53	9
54	4
55	3
56	7
57	4
58	2
59	9
60	3
61	4
62	8
63	2
64	9
65	3
66	1
67	5
68	3
69	8
70	7
71	1
72	3
73	7
74	10
75	1
76	7
77	7
78	2
79	2
80	3
81	6
82	8
83	3
84	7
85	5
86	5
87	8
88	6
89	3
90	4
91	3
92	5
93	2
94	5
95	7
96	1
97	2
98	2
99	3
100	8
101	8
102	9
103	8
104	1
105	1
106	5
107	9
108	3
109	7
110	9
111	1
112	9
113	9
114	2
115	9
116	1
117	4
118	8
119	2
120	3
121	8
122	3
123	2
124	5
125	9
126	3
127	6
128	2
129	3
130	9
131	2
132	2
133	1
134	2
135	3
136	7
137	2
138	7
139	4
140	8
141	6
142	8
143	5
144	4
145	3
146	4
147	6
148	5
149	7
150	3
151	5
152	9
153	10
154	9
155	9
156	5
157	5
158	5
159	1
160	2
161	7
162	6
163	4
164	6
165	1
166	1
167	10
168	4
169	1
170	9
171	9
172	4
173	6
174	3
175	6
176	1
177	2
178	6
179	9
180	10
181	8
182	5
183	1
184	8
185	2
186	7
187	6
188	8
189	5
190	3
191	3
192	6
193	6
194	5
195	3
196	3
197	8
198	6
199	1
200	5
201	2
202	4
203	4
204	4
205	1
206	5
207	6
208	2
209	8
210	2
211	9
212	10
213	9
214	5
215	2
216	1
217	7
218	9
219	6
220	6
221	1
222	10
223	6
224	4
225	4
226	8
227	9
228	6
229	7
230	1
231	8
232	2
233	6
234	3
235	4
236	10
237	2
238	8
239	7
240	9
241	3
242	3
243	8
244	7
245	2
246	5
247	10
248	2
249	7
250	7
251	1
252	1
253	4
254	9
255	2
256	1
257	3
258	7
259	7
260	7
261	10
262	8
263	3
264	7
265	8
266	10
267	10
268	4
269	3
270	3
271	4
272	5
273	1
274	2
275	9
276	3
277	9
278	9
279	9
280	2
281	5
282	3
283	4
284	6
285	7
286	2
287	4
288	8
289	5
290	6
291	8
292	9
293	8
294	9
295	10
296	3
297	7
298	7
299	6
300	1
301	5
302	4
303	7
304	3
305	3
306	1
307	5
308	1
309	4
310	9
311	9
312	5
313	3
314	1
315	7
316	4
317	4
318	1
319	4
320	8
321	2
322	7
323	5
324	4
325	5
326	8
327	10
328	3
329	9
330	6
331	2
332	1
333	2
334	2
335	9
336	6
337	2
338	4
339	8
340	4
341	9
342	7
343	5
344	2
345	3
346	2
347	3
348	7
349	6
350	9
351	4
352	3
353	8
354	2
355	10
356	5
357	3
358	6
359	7
360	9
361	4
362	10
363	3
364	7
365	5
366	1
367	3
368	4
369	10
370	2
371	1
372	3
373	6
374	6
375	8
376	7
377	9
378	9
379	5
380	7
381	6
382	8
383	8
384	6
385	5
386	4
387	6
388	4
389	5
390	6
391	2
392	3
393	5
394	1
395	1
396	2
397	7
398	2
399	2
400	2
401	10
402	8
403	6
404	2
405	8
406	8
407	1
408	1
409	2
410	5
411	4
DEPOT_SECTION
1
-1
EOF
