experiment/data/lkh-res/Vrp-Set-X-n411/Vrp-Set-X-n411-lkh/0.lkh1.log
PARAMETER_FILE = baseline_results/cvrp_lkh/Vrp-Set-X-n411/Vrp-Set-X-n411-lkh/0.lkh1.par
Reading PROBLEM_FILE: "baseline_results/cvrp_lkh/Vrp-Set-X-n411/Vrp-Set-X-n411-lkh/0.lkh1.vrp" ... done
ASCENT_CANDIDATES = 50
BACKBONE_TRIALS = 0
BACKTRACKING = NO
# BWTSP =
# CANDIDATE_FILE =
CANDIDATE_SET_TYPE = ALPHA
# DISTANCE =
DEPOT = 1
# EDGE_FILE =
EXCESS = 0.00243309
EXTERNAL_SALESMEN = 0
EXTRA_CANDIDATES = 0 
EXTRA_CANDIDATE_SET_TYPE = QUADRANT
GAIN23 = NO
GAIN_CRITERION = YES
INITIAL_PERIOD = 205
INITIAL_STEP_SIZE = 1
INITIAL_TOUR_ALGORITHM = WALK
# INITIAL_TOUR_FILE = 
INITIAL_TOUR_FRACTION = 1.000
# INPUT_TOUR_FILE = 
KICK_TYPE = 4
KICKS = 1
# MAX_BREADTH =
MAKESPAN = NO
MAX_CANDIDATES = 5 
MAX_SWAPS = 0
MAX_TRIALS = 10000
# MERGE_TOUR_FILE =
MOVE_TYPE = 5 SPECIAL
MTSP_MIN_SIZE = 1
MTSP_MAX_SIZE = 410
# MTSP_SOLUTION_FILE = 
# NONSEQUENTIAL_MOVE_TYPE = 5
# OPTIMUM =
OUTPUT_TOUR_FILE = baseline_results/cvrp_lkh/Vrp-Set-X-n411/Vrp-Set-X-n411-lkh/0.lkh1.tour
PATCHING_A = 1 
PATCHING_C = 0 
# PI_FILE = 
POPMUSIC_INITIAL_TOUR = NO
POPMUSIC_MAX_NEIGHBORS = 5
POPMUSIC_SAMPLE_SIZE = 10
POPMUSIC_SOLUTIONS = 50
POPMUSIC_TRIALS = 1
POPULATION_SIZE = 10
PRECISION = 100
PROBLEM_FILE = baseline_results/cvrp_lkh/Vrp-Set-X-n411/Vrp-Set-X-n411-lkh/0.lkh1.vrp
RECOMBINATION = IPT
RESTRICTED_SEARCH = YES
RUNS = 1
SALESMEN = 19
SCALE = 1
SEED = 1234
# SINTEF_SOLUTION_FILE = 
STOP_AT_OPTIMUM = YES
SUBGRADIENT = YES
# SUBPROBLEM_SIZE =
# SUBPROBLEM_TOUR_FILE = 
SUBSEQUENT_MOVE_TYPE = 5 SPECIAL
SUBSEQUENT_PATCHING = YES
# TIME_LIMIT =
# TOTAL_TIME_LIMIT =
# TOUR_FILE = 
TRACE_LEVEL = 1
VEHICLES = 19

Lower bound = 1135175.8, Ascent time = 0.21 sec.
Cand.min = 3, Cand.avg = 5.0, Cand.max = 5
Preprocessing time = 0.21 sec.
* 1: Cost = 0_2165609, Time = 0.18 sec. 
Writing OUTPUT_TOUR_FILE: "baseline_results/cvrp_lkh/Vrp-Set-X-n411/Vrp-Set-X-n411-lkh/0.lkh1.tour" ... done
* 5: Cost = 0_2114186, Time = 0.28 sec. 
Writing OUTPUT_TOUR_FILE: "baseline_results/cvrp_lkh/Vrp-Set-X-n411/Vrp-Set-X-n411-lkh/0.lkh1.tour" ... done
* 6: Cost = 0_2113046, Time = 0.30 sec. 
Writing OUTPUT_TOUR_FILE: "baseline_results/cvrp_lkh/Vrp-Set-X-n411/Vrp-Set-X-n411-lkh/0.lkh1.tour" ... done
* 11: Cost = 0_2112736, Time = 0.36 sec. 
Writing OUTPUT_TOUR_FILE: "baseline_results/cvrp_lkh/Vrp-Set-X-n411/Vrp-Set-X-n411-lkh/0.lkh1.tour" ... done
* 14: Cost = 0_2112168, Time = 0.42 sec. 
Writing OUTPUT_TOUR_FILE: "baseline_results/cvrp_lkh/Vrp-Set-X-n411/Vrp-Set-X-n411-lkh/0.lkh1.tour" ... done
* 15: Cost = 0_2107317, Time = 0.43 sec. 
Writing OUTPUT_TOUR_FILE: "baseline_results/cvrp_lkh/Vrp-Set-X-n411/Vrp-Set-X-n411-lkh/0.lkh1.tour" ... done
* 16: Cost = 0_2106393, Time = 0.44 sec. 
Writing OUTPUT_TOUR_FILE: "baseline_results/cvrp_lkh/Vrp-Set-X-n411/Vrp-Set-X-n411-lkh/0.lkh1.tour" ... done
* 17: Cost = 0_2079753, Time = 0.48 sec. 
Writing OUTPUT_TOUR_FILE: "baseline_results/cvrp_lkh/Vrp-Set-X-n411/Vrp-Set-X-n411-lkh/0.lkh1.tour" ... done
* 18: Cost = 0_2078813, Time = 0.51 sec. 
Writing OUTPUT_TOUR_FILE: "baseline_results/cvrp_lkh/Vrp-Set-X-n411/Vrp-Set-X-n411-lkh/0.lkh1.tour" ... done
* 27: Cost = 0_2075324, Time = 0.56 sec. 
Writing OUTPUT_TOUR_FILE: "baseline_results/cvrp_lkh/Vrp-Set-X-n411/Vrp-Set-X-n411-lkh/0.lkh1.tour" ... done
* 31: Cost = 0_2068138, Time = 0.65 sec. 
Writing OUTPUT_TOUR_FILE: "baseline_results/cvrp_lkh/Vrp-Set-X-n411/Vrp-Set-X-n411-lkh/0.lkh1.tour" ... done
* 33: Cost = 0_2066951, Time = 0.66 sec. 
Writing OUTPUT_TOUR_FILE: "baseline_results/cvrp_lkh/Vrp-Set-X-n411/Vrp-Set-X-n411-lkh/0.lkh1.tour" ... done
* 36: Cost = 0_2066201, Time = 0.71 sec. 
Writing OUTPUT_TOUR_FILE: "baseline_results/cvrp_lkh/Vrp-Set-X-n411/Vrp-Set-X-n411-lkh/0.lkh1.tour" ... done
* 39: Cost = 0_2063812, Time = 0.74 sec. 
Writing OUTPUT_TOUR_FILE: "baseline_results/cvrp_lkh/Vrp-Set-X-n411/Vrp-Set-X-n411-lkh/0.lkh1.tour" ... done
* 44: Cost = 0_2063235, Time = 0.77 sec. 
Writing OUTPUT_TOUR_FILE: "baseline_results/cvrp_lkh/Vrp-Set-X-n411/Vrp-Set-X-n411-lkh/0.lkh1.tour" ... done
* 45: Cost = 0_2061280, Time = 0.78 sec. 
Writing OUTPUT_TOUR_FILE: "baseline_results/cvrp_lkh/Vrp-Set-X-n411/Vrp-Set-X-n411-lkh/0.lkh1.tour" ... done
* 47: Cost = 0_2060555, Time = 0.78 sec. 
Writing OUTPUT_TOUR_FILE: "baseline_results/cvrp_lkh/Vrp-Set-X-n411/Vrp-Set-X-n411-lkh/0.lkh1.tour" ... done
* 49: Cost = 0_2058264, Time = 0.83 sec. 
Writing OUTPUT_TOUR_FILE: "baseline_results/cvrp_lkh/Vrp-Set-X-n411/Vrp-Set-X-n411-lkh/0.lkh1.tour" ... done
* 58: Cost = 0_2057673, Time = 1.04 sec. 
Writing OUTPUT_TOUR_FILE: "baseline_results/cvrp_lkh/Vrp-Set-X-n411/Vrp-Set-X-n411-lkh/0.lkh1.tour" ... done
* 63: Cost = 0_2057572, Time = 1.19 sec. 
Writing OUTPUT_TOUR_FILE: "baseline_results/cvrp_lkh/Vrp-Set-X-n411/Vrp-Set-X-n411-lkh/0.lkh1.tour" ... done
* 68: Cost = 0_2057322, Time = 1.24 sec. 
Writing OUTPUT_TOUR_FILE: "baseline_results/cvrp_lkh/Vrp-Set-X-n411/Vrp-Set-X-n411-lkh/0.lkh1.tour" ... done
* 82: Cost = 0_2056814, Time = 1.45 sec. 
Writing OUTPUT_TOUR_FILE: "baseline_results/cvrp_lkh/Vrp-Set-X-n411/Vrp-Set-X-n411-lkh/0.lkh1.tour" ... done
* 84: Cost = 0_2051469, Time = 1.52 sec. 
Writing OUTPUT_TOUR_FILE: "baseline_results/cvrp_lkh/Vrp-Set-X-n411/Vrp-Set-X-n411-lkh/0.lkh1.tour" ... done
* 94: Cost = 0_2051446, Time = 1.57 sec. 
Writing OUTPUT_TOUR_FILE: "baseline_results/cvrp_lkh/Vrp-Set-X-n411/Vrp-Set-X-n411-lkh/0.lkh1.tour" ... done
* 104: Cost = 0_2050298, Time = 1.67 sec. 
Writing OUTPUT_TOUR_FILE: "baseline_results/cvrp_lkh/Vrp-Set-X-n411/Vrp-Set-X-n411-lkh/0.lkh1.tour" ... done
* 167: Cost = 0_2050020, Time = 2.59 sec. 
Writing OUTPUT_TOUR_FILE: "baseline_results/cvrp_lkh/Vrp-Set-X-n411/Vrp-Set-X-n411-lkh/0.lkh1.tour" ... done
* 171: Cost = 0_2049409, Time = 2.65 sec. 
Writing OUTPUT_TOUR_FILE: "baseline_results/cvrp_lkh/Vrp-Set-X-n411/Vrp-Set-X-n411-lkh/0.lkh1.tour" ... done
* 200: Cost = 0_2049202, Time = 3.11 sec. 
Writing OUTPUT_TOUR_FILE: "baseline_results/cvrp_lkh/Vrp-Set-X-n411/Vrp-Set-X-n411-lkh/0.lkh1.tour" ... done
* 210: Cost = 0_2048319, Time = 3.36 sec. 
Writing OUTPUT_TOUR_FILE: "baseline_results/cvrp_lkh/Vrp-Set-X-n411/Vrp-Set-X-n411-lkh/0.lkh1.tour" ... done
* 225: Cost = 0_2048154, Time = 3.65 sec. 
Writing OUTPUT_TOUR_FILE: "baseline_results/cvrp_lkh/Vrp-Set-X-n411/Vrp-Set-X-n411-lkh/0.lkh1.tour" ... done
* 249: Cost = 0_2048034, Time = 3.86 sec. 
Writing OUTPUT_TOUR_FILE: "baseline_results/cvrp_lkh/Vrp-Set-X-n411/Vrp-Set-X-n411-lkh/0.lkh1.tour" ... done
* 256: Cost = 0_2048005, Time = 3.94 sec. 
Writing OUTPUT_TOUR_FILE: "baseline_results/cvrp_lkh/Vrp-Set-X-n411/Vrp-Set-X-n411-lkh/0.lkh1.tour" ... done
* 260: Cost = 0_2047672, Time = 4.03 sec. 
Writing OUTPUT_TOUR_FILE: "baseline_results/cvrp_lkh/Vrp-Set-X-n411/Vrp-Set-X-n411-lkh/0.lkh1.tour" ... done
* 274: Cost = 0_2046418, Time = 4.42 sec. 
Writing OUTPUT_TOUR_FILE: "baseline_results/cvrp_lkh/Vrp-Set-X-n411/Vrp-Set-X-n411-lkh/0.lkh1.tour" ... done
* 275: Cost = 0_2046309, Time = 4.43 sec. 
Writing OUTPUT_TOUR_FILE: "baseline_results/cvrp_lkh/Vrp-Set-X-n411/Vrp-Set-X-n411-lkh/0.lkh1.tour" ... done
* 277: Cost = 0_2046165, Time = 4.46 sec. 
Writing OUTPUT_TOUR_FILE: "baseline_results/cvrp_lkh/Vrp-Set-X-n411/Vrp-Set-X-n411-lkh/0.lkh1.tour" ... done
* 287: Cost = 0_2045534, Time = 4.56 sec. 
Writing OUTPUT_TOUR_FILE: "baseline_results/cvrp_lkh/Vrp-Set-X-n411/Vrp-Set-X-n411-lkh/0.lkh1.tour" ... done
* 291: Cost = 0_2043171, Time = 4.69 sec. 
Writing OUTPUT_TOUR_FILE: "baseline_results/cvrp_lkh/Vrp-Set-X-n411/Vrp-Set-X-n411-lkh/0.lkh1.tour" ... done
* 299: Cost = 0_2040800, Time = 4.76 sec. 
Writing OUTPUT_TOUR_FILE: "baseline_results/cvrp_lkh/Vrp-Set-X-n411/Vrp-Set-X-n411-lkh/0.lkh1.tour" ... done
* 305: Cost = 0_2040622, Time = 4.83 sec. 
Writing OUTPUT_TOUR_FILE: "baseline_results/cvrp_lkh/Vrp-Set-X-n411/Vrp-Set-X-n411-lkh/0.lkh1.tour" ... done
* 319: Cost = 0_2040530, Time = 5.01 sec. 
Writing OUTPUT_TOUR_FILE: "baseline_results/cvrp_lkh/Vrp-Set-X-n411/Vrp-Set-X-n411-lkh/0.lkh1.tour" ... done
* 323: Cost = 0_2039998, Time = 5.07 sec. 
Writing OUTPUT_TOUR_FILE: "baseline_results/cvrp_lkh/Vrp-Set-X-n411/Vrp-Set-X-n411-lkh/0.lkh1.tour" ... done
* 330: Cost = 0_2039765, Time = 5.16 sec. 
Writing OUTPUT_TOUR_FILE: "baseline_results/cvrp_lkh/Vrp-Set-X-n411/Vrp-Set-X-n411-lkh/0.lkh1.tour" ... done
* 339: Cost = 0_2039047, Time = 5.27 sec. 
Writing OUTPUT_TOUR_FILE: "baseline_results/cvrp_lkh/Vrp-Set-X-n411/Vrp-Set-X-n411-lkh/0.lkh1.tour" ... done
* 343: Cost = 0_2038570, Time = 5.33 sec. 
Writing OUTPUT_TOUR_FILE: "baseline_results/cvrp_lkh/Vrp-Set-X-n411/Vrp-Set-X-n411-lkh/0.lkh1.tour" ... done
* 351: Cost = 0_2036492, Time = 5.39 sec. 
Writing OUTPUT_TOUR_FILE: "baseline_results/cvrp_lkh/Vrp-Set-X-n411/Vrp-Set-X-n411-lkh/0.lkh1.tour" ... done
* 358: Cost = 0_2034290, Time = 5.45 sec. 
Writing OUTPUT_TOUR_FILE: "baseline_results/cvrp_lkh/Vrp-Set-X-n411/Vrp-Set-X-n411-lkh/0.lkh1.tour" ... done
* 360: Cost = 0_2034024, Time = 5.48 sec. 
Writing OUTPUT_TOUR_FILE: "baseline_results/cvrp_lkh/Vrp-Set-X-n411/Vrp-Set-X-n411-lkh/0.lkh1.tour" ... done
* 389: Cost = 0_2032939, Time = 5.94 sec. 
Writing OUTPUT_TOUR_FILE: "baseline_results/cvrp_lkh/Vrp-Set-X-n411/Vrp-Set-X-n411-lkh/0.lkh1.tour" ... done
* 398: Cost = 0_2032689, Time = 6.14 sec. 
Writing OUTPUT_TOUR_FILE: "baseline_results/cvrp_lkh/Vrp-Set-X-n411/Vrp-Set-X-n411-lkh/0.lkh1.tour" ... done
* 436: Cost = 0_2031852, Time = 6.66 sec. 
Writing OUTPUT_TOUR_FILE: "baseline_results/cvrp_lkh/Vrp-Set-X-n411/Vrp-Set-X-n411-lkh/0.lkh1.tour" ... done
* 439: Cost = 0_2031526, Time = 6.69 sec. 
Writing OUTPUT_TOUR_FILE: "baseline_results/cvrp_lkh/Vrp-Set-X-n411/Vrp-Set-X-n411-lkh/0.lkh1.tour" ... done
* 449: Cost = 0_2031295, Time = 6.78 sec. 
Writing OUTPUT_TOUR_FILE: "baseline_results/cvrp_lkh/Vrp-Set-X-n411/Vrp-Set-X-n411-lkh/0.lkh1.tour" ... done
* 456: Cost = 0_2031264, Time = 6.82 sec. 
Writing OUTPUT_TOUR_FILE: "baseline_results/cvrp_lkh/Vrp-Set-X-n411/Vrp-Set-X-n411-lkh/0.lkh1.tour" ... done
* 475: Cost = 0_2031172, Time = 7.17 sec. 
Writing OUTPUT_TOUR_FILE: "baseline_results/cvrp_lkh/Vrp-Set-X-n411/Vrp-Set-X-n411-lkh/0.lkh1.tour" ... done
* 486: Cost = 0_2030728, Time = 7.41 sec. 
Writing OUTPUT_TOUR_FILE: "baseline_results/cvrp_lkh/Vrp-Set-X-n411/Vrp-Set-X-n411-lkh/0.lkh1.tour" ... done
* 537: Cost = 0_2030120, Time = 8.05 sec. 
Writing OUTPUT_TOUR_FILE: "baseline_results/cvrp_lkh/Vrp-Set-X-n411/Vrp-Set-X-n411-lkh/0.lkh1.tour" ... done
* 557: Cost = 0_2028297, Time = 8.50 sec. 
Writing OUTPUT_TOUR_FILE: "baseline_results/cvrp_lkh/Vrp-Set-X-n411/Vrp-Set-X-n411-lkh/0.lkh1.tour" ... done
* 558: Cost = 0_2028218, Time = 8.51 sec. 
Writing OUTPUT_TOUR_FILE: "baseline_results/cvrp_lkh/Vrp-Set-X-n411/Vrp-Set-X-n411-lkh/0.lkh1.tour" ... done
* 592: Cost = 0_2027757, Time = 9.00 sec. 
Writing OUTPUT_TOUR_FILE: "baseline_results/cvrp_lkh/Vrp-Set-X-n411/Vrp-Set-X-n411-lkh/0.lkh1.tour" ... done
* 691: Cost = 0_2027696, Time = 10.48 sec. 
Writing OUTPUT_TOUR_FILE: "baseline_results/cvrp_lkh/Vrp-Set-X-n411/Vrp-Set-X-n411-lkh/0.lkh1.tour" ... done
* 741: Cost = 0_2027217, Time = 11.08 sec. 
Writing OUTPUT_TOUR_FILE: "baseline_results/cvrp_lkh/Vrp-Set-X-n411/Vrp-Set-X-n411-lkh/0.lkh1.tour" ... done
* 809: Cost = 0_2026595, Time = 11.92 sec. 
Writing OUTPUT_TOUR_FILE: "baseline_results/cvrp_lkh/Vrp-Set-X-n411/Vrp-Set-X-n411-lkh/0.lkh1.tour" ... done
* 812: Cost = 0_2026453, Time = 11.94 sec. 
Writing OUTPUT_TOUR_FILE: "baseline_results/cvrp_lkh/Vrp-Set-X-n411/Vrp-Set-X-n411-lkh/0.lkh1.tour" ... done
* 928: Cost = 0_2026057, Time = 13.95 sec. 
Writing OUTPUT_TOUR_FILE: "baseline_results/cvrp_lkh/Vrp-Set-X-n411/Vrp-Set-X-n411-lkh/0.lkh1.tour" ... done
* 931: Cost = 0_2026039, Time = 13.98 sec. 
Writing OUTPUT_TOUR_FILE: "baseline_results/cvrp_lkh/Vrp-Set-X-n411/Vrp-Set-X-n411-lkh/0.lkh1.tour" ... done
* 946: Cost = 0_2025195, Time = 14.19 sec. 
Writing OUTPUT_TOUR_FILE: "baseline_results/cvrp_lkh/Vrp-Set-X-n411/Vrp-Set-X-n411-lkh/0.lkh1.tour" ... done
* 958: Cost = 0_2025168, Time = 14.29 sec. 
Writing OUTPUT_TOUR_FILE: "baseline_results/cvrp_lkh/Vrp-Set-X-n411/Vrp-Set-X-n411-lkh/0.lkh1.tour" ... done
* 983: Cost = 0_2024146, Time = 14.45 sec. 
Writing OUTPUT_TOUR_FILE: "baseline_results/cvrp_lkh/Vrp-Set-X-n411/Vrp-Set-X-n411-lkh/0.lkh1.tour" ... done
* 1031: Cost = 0_2023933, Time = 15.23 sec. 
Writing OUTPUT_TOUR_FILE: "baseline_results/cvrp_lkh/Vrp-Set-X-n411/Vrp-Set-X-n411-lkh/0.lkh1.tour" ... done
* 1039: Cost = 0_2023932, Time = 15.29 sec. 
Writing OUTPUT_TOUR_FILE: "baseline_results/cvrp_lkh/Vrp-Set-X-n411/Vrp-Set-X-n411-lkh/0.lkh1.tour" ... done
* 1096: Cost = 0_2023811, Time = 15.91 sec. 
Writing OUTPUT_TOUR_FILE: "baseline_results/cvrp_lkh/Vrp-Set-X-n411/Vrp-Set-X-n411-lkh/0.lkh1.tour" ... done
* 1145: Cost = 0_2023765, Time = 16.97 sec. 
Writing OUTPUT_TOUR_FILE: "baseline_results/cvrp_lkh/Vrp-Set-X-n411/Vrp-Set-X-n411-lkh/0.lkh1.tour" ... done
* 1154: Cost = 0_2023628, Time = 17.04 sec. 
Writing OUTPUT_TOUR_FILE: "baseline_results/cvrp_lkh/Vrp-Set-X-n411/Vrp-Set-X-n411-lkh/0.lkh1.tour" ... done
* 1230: Cost = 0_2023210, Time = 18.26 sec. 
Writing OUTPUT_TOUR_FILE: "baseline_results/cvrp_lkh/Vrp-Set-X-n411/Vrp-Set-X-n411-lkh/0.lkh1.tour" ... done
* 1305: Cost = 0_2022874, Time = 19.21 sec. 
Writing OUTPUT_TOUR_FILE: "baseline_results/cvrp_lkh/Vrp-Set-X-n411/Vrp-Set-X-n411-lkh/0.lkh1.tour" ... done
* 1322: Cost = 0_2022313, Time = 19.37 sec. 
Writing OUTPUT_TOUR_FILE: "baseline_results/cvrp_lkh/Vrp-Set-X-n411/Vrp-Set-X-n411-lkh/0.lkh1.tour" ... done
* 1545: Cost = 0_2022283, Time = 22.83 sec. 
Writing OUTPUT_TOUR_FILE: "baseline_results/cvrp_lkh/Vrp-Set-X-n411/Vrp-Set-X-n411-lkh/0.lkh1.tour" ... done
* 1555: Cost = 0_2022264, Time = 22.93 sec. 
Writing OUTPUT_TOUR_FILE: "baseline_results/cvrp_lkh/Vrp-Set-X-n411/Vrp-Set-X-n411-lkh/0.lkh1.tour" ... done
* 2061: Cost = 0_2022166, Time = 31.12 sec. 
Writing OUTPUT_TOUR_FILE: "baseline_results/cvrp_lkh/Vrp-Set-X-n411/Vrp-Set-X-n411-lkh/0.lkh1.tour" ... done
* 2074: Cost = 0_2022073, Time = 31.31 sec. 
Writing OUTPUT_TOUR_FILE: "baseline_results/cvrp_lkh/Vrp-Set-X-n411/Vrp-Set-X-n411-lkh/0.lkh1.tour" ... done
* 2391: Cost = 0_2021957, Time = 36.62 sec. 
Writing OUTPUT_TOUR_FILE: "baseline_results/cvrp_lkh/Vrp-Set-X-n411/Vrp-Set-X-n411-lkh/0.lkh1.tour" ... done
* 2404: Cost = 0_2021938, Time = 36.80 sec. 
Writing OUTPUT_TOUR_FILE: "baseline_results/cvrp_lkh/Vrp-Set-X-n411/Vrp-Set-X-n411-lkh/0.lkh1.tour" ... done
* 2982: Cost = 0_2021508, Time = 47.33 sec. 
Writing OUTPUT_TOUR_FILE: "baseline_results/cvrp_lkh/Vrp-Set-X-n411/Vrp-Set-X-n411-lkh/0.lkh1.tour" ... done
* 4119: Cost = 0_2021435, Time = 65.96 sec. 
Writing OUTPUT_TOUR_FILE: "baseline_results/cvrp_lkh/Vrp-Set-X-n411/Vrp-Set-X-n411-lkh/0.lkh1.tour" ... done
* 4179: Cost = 0_2021382, Time = 66.64 sec. 
Writing OUTPUT_TOUR_FILE: "baseline_results/cvrp_lkh/Vrp-Set-X-n411/Vrp-Set-X-n411-lkh/0.lkh1.tour" ... done
* 4728: Cost = 0_2021194, Time = 74.40 sec. 
Writing OUTPUT_TOUR_FILE: "baseline_results/cvrp_lkh/Vrp-Set-X-n411/Vrp-Set-X-n411-lkh/0.lkh1.tour" ... done
* 4761: Cost = 0_2021107, Time = 74.98 sec. 
Writing OUTPUT_TOUR_FILE: "baseline_results/cvrp_lkh/Vrp-Set-X-n411/Vrp-Set-X-n411-lkh/0.lkh1.tour" ... done
* 4870: Cost = 0_2020876, Time = 76.77 sec. 
Writing OUTPUT_TOUR_FILE: "baseline_results/cvrp_lkh/Vrp-Set-X-n411/Vrp-Set-X-n411-lkh/0.lkh1.tour" ... done
* 5595: Cost = 0_2020146, Time = 88.29 sec. 
Writing OUTPUT_TOUR_FILE: "baseline_results/cvrp_lkh/Vrp-Set-X-n411/Vrp-Set-X-n411-lkh/0.lkh1.tour" ... done
* 5678: Cost = 0_2019815, Time = 89.50 sec. 
Writing OUTPUT_TOUR_FILE: "baseline_results/cvrp_lkh/Vrp-Set-X-n411/Vrp-Set-X-n411-lkh/0.lkh1.tour" ... done
* 5682: Cost = 0_2019064, Time = 89.59 sec. 
Writing OUTPUT_TOUR_FILE: "baseline_results/cvrp_lkh/Vrp-Set-X-n411/Vrp-Set-X-n411-lkh/0.lkh1.tour" ... done
* 5826: Cost = 0_2018845, Time = 91.67 sec. 
Writing OUTPUT_TOUR_FILE: "baseline_results/cvrp_lkh/Vrp-Set-X-n411/Vrp-Set-X-n411-lkh/0.lkh1.tour" ... done
* 5940: Cost = 0_2016886, Time = 93.31 sec. 
Writing OUTPUT_TOUR_FILE: "baseline_results/cvrp_lkh/Vrp-Set-X-n411/Vrp-Set-X-n411-lkh/0.lkh1.tour" ... done
* 5948: Cost = 0_2016127, Time = 93.47 sec. 
Writing OUTPUT_TOUR_FILE: "baseline_results/cvrp_lkh/Vrp-Set-X-n411/Vrp-Set-X-n411-lkh/0.lkh1.tour" ... done
* 6088: Cost = 0_2015209, Time = 95.49 sec. 
Writing OUTPUT_TOUR_FILE: "baseline_results/cvrp_lkh/Vrp-Set-X-n411/Vrp-Set-X-n411-lkh/0.lkh1.tour" ... done
* 6137: Cost = 0_2014469, Time = 96.45 sec. 
Writing OUTPUT_TOUR_FILE: "baseline_results/cvrp_lkh/Vrp-Set-X-n411/Vrp-Set-X-n411-lkh/0.lkh1.tour" ... done
* 6142: Cost = 0_2014325, Time = 96.59 sec. 
Writing OUTPUT_TOUR_FILE: "baseline_results/cvrp_lkh/Vrp-Set-X-n411/Vrp-Set-X-n411-lkh/0.lkh1.tour" ... done
* 6149: Cost = 0_2014012, Time = 96.84 sec. 
Writing OUTPUT_TOUR_FILE: "baseline_results/cvrp_lkh/Vrp-Set-X-n411/Vrp-Set-X-n411-lkh/0.lkh1.tour" ... done
* 6200: Cost = 0_2013954, Time = 97.76 sec. 
Writing OUTPUT_TOUR_FILE: "baseline_results/cvrp_lkh/Vrp-Set-X-n411/Vrp-Set-X-n411-lkh/0.lkh1.tour" ... done
* 6211: Cost = 0_2013757, Time = 98.03 sec. 
Writing OUTPUT_TOUR_FILE: "baseline_results/cvrp_lkh/Vrp-Set-X-n411/Vrp-Set-X-n411-lkh/0.lkh1.tour" ... done
* 6250: Cost = 0_2013461, Time = 98.45 sec. 
Writing OUTPUT_TOUR_FILE: "baseline_results/cvrp_lkh/Vrp-Set-X-n411/Vrp-Set-X-n411-lkh/0.lkh1.tour" ... done
* 6251: Cost = 0_2012582, Time = 98.46 sec. 
Writing OUTPUT_TOUR_FILE: "baseline_results/cvrp_lkh/Vrp-Set-X-n411/Vrp-Set-X-n411-lkh/0.lkh1.tour" ... done
* 6270: Cost = 0_2011591, Time = 98.72 sec. 
Writing OUTPUT_TOUR_FILE: "baseline_results/cvrp_lkh/Vrp-Set-X-n411/Vrp-Set-X-n411-lkh/0.lkh1.tour" ... done
* 6380: Cost = 0_2011348, Time = 101.00 sec. 
Writing OUTPUT_TOUR_FILE: "baseline_results/cvrp_lkh/Vrp-Set-X-n411/Vrp-Set-X-n411-lkh/0.lkh1.tour" ... done
* 6408: Cost = 0_2011312, Time = 101.23 sec. 
Writing OUTPUT_TOUR_FILE: "baseline_results/cvrp_lkh/Vrp-Set-X-n411/Vrp-Set-X-n411-lkh/0.lkh1.tour" ... done
* 6442: Cost = 0_2011299, Time = 102.00 sec. 
Writing OUTPUT_TOUR_FILE: "baseline_results/cvrp_lkh/Vrp-Set-X-n411/Vrp-Set-X-n411-lkh/0.lkh1.tour" ... done
* 6453: Cost = 0_2011186, Time = 102.19 sec. 
Writing OUTPUT_TOUR_FILE: "baseline_results/cvrp_lkh/Vrp-Set-X-n411/Vrp-Set-X-n411-lkh/0.lkh1.tour" ... done
* 6564: Cost = 0_2009827, Time = 104.26 sec. 
Writing OUTPUT_TOUR_FILE: "baseline_results/cvrp_lkh/Vrp-Set-X-n411/Vrp-Set-X-n411-lkh/0.lkh1.tour" ... done
* 6683: Cost = 0_2009790, Time = 106.20 sec. 
Writing OUTPUT_TOUR_FILE: "baseline_results/cvrp_lkh/Vrp-Set-X-n411/Vrp-Set-X-n411-lkh/0.lkh1.tour" ... done
* 6701: Cost = 0_2009649, Time = 106.62 sec. 
Writing OUTPUT_TOUR_FILE: "baseline_results/cvrp_lkh/Vrp-Set-X-n411/Vrp-Set-X-n411-lkh/0.lkh1.tour" ... done
* 6901: Cost = 0_2009103, Time = 110.11 sec. 
Writing OUTPUT_TOUR_FILE: "baseline_results/cvrp_lkh/Vrp-Set-X-n411/Vrp-Set-X-n411-lkh/0.lkh1.tour" ... done
* 6908: Cost = 0_2009097, Time = 110.27 sec. 
Writing OUTPUT_TOUR_FILE: "baseline_results/cvrp_lkh/Vrp-Set-X-n411/Vrp-Set-X-n411-lkh/0.lkh1.tour" ... done
* 6911: Cost = 0_2008779, Time = 110.31 sec. 
Writing OUTPUT_TOUR_FILE: "baseline_results/cvrp_lkh/Vrp-Set-X-n411/Vrp-Set-X-n411-lkh/0.lkh1.tour" ... done
* 6915: Cost = 0_2008405, Time = 110.35 sec. 
Writing OUTPUT_TOUR_FILE: "baseline_results/cvrp_lkh/Vrp-Set-X-n411/Vrp-Set-X-n411-lkh/0.lkh1.tour" ... done
* 6963: Cost = 0_2008184, Time = 111.45 sec. 
Writing OUTPUT_TOUR_FILE: "baseline_results/cvrp_lkh/Vrp-Set-X-n411/Vrp-Set-X-n411-lkh/0.lkh1.tour" ... done
* 6980: Cost = 0_2007705, Time = 111.64 sec. 
Writing OUTPUT_TOUR_FILE: "baseline_results/cvrp_lkh/Vrp-Set-X-n411/Vrp-Set-X-n411-lkh/0.lkh1.tour" ... done
* 7037: Cost = 0_2007494, Time = 112.81 sec. 
Writing OUTPUT_TOUR_FILE: "baseline_results/cvrp_lkh/Vrp-Set-X-n411/Vrp-Set-X-n411-lkh/0.lkh1.tour" ... done
* 7047: Cost = 0_2007460, Time = 113.01 sec. 
Writing OUTPUT_TOUR_FILE: "baseline_results/cvrp_lkh/Vrp-Set-X-n411/Vrp-Set-X-n411-lkh/0.lkh1.tour" ... done
* 7076: Cost = 0_2007320, Time = 113.80 sec. 
Writing OUTPUT_TOUR_FILE: "baseline_results/cvrp_lkh/Vrp-Set-X-n411/Vrp-Set-X-n411-lkh/0.lkh1.tour" ... done
* 7080: Cost = 0_2006924, Time = 113.86 sec. 
Writing OUTPUT_TOUR_FILE: "baseline_results/cvrp_lkh/Vrp-Set-X-n411/Vrp-Set-X-n411-lkh/0.lkh1.tour" ... done
* 7201: Cost = 0_2006697, Time = 115.97 sec. 
Writing OUTPUT_TOUR_FILE: "baseline_results/cvrp_lkh/Vrp-Set-X-n411/Vrp-Set-X-n411-lkh/0.lkh1.tour" ... done
* 7230: Cost = 0_2006319, Time = 116.43 sec. 
Writing OUTPUT_TOUR_FILE: "baseline_results/cvrp_lkh/Vrp-Set-X-n411/Vrp-Set-X-n411-lkh/0.lkh1.tour" ... done
* 7927: Cost = 0_2006133, Time = 130.08 sec. 
Writing OUTPUT_TOUR_FILE: "baseline_results/cvrp_lkh/Vrp-Set-X-n411/Vrp-Set-X-n411-lkh/0.lkh1.tour" ... done
* 9004: Cost = 0_2006018, Time = 157.60 sec. 
Writing OUTPUT_TOUR_FILE: "baseline_results/cvrp_lkh/Vrp-Set-X-n411/Vrp-Set-X-n411-lkh/0.lkh1.tour" ... done
* 9530: Cost = 0_2005977, Time = 170.13 sec. 
Writing OUTPUT_TOUR_FILE: "baseline_results/cvrp_lkh/Vrp-Set-X-n411/Vrp-Set-X-n411-lkh/0.lkh1.tour" ... done
* 9996: Cost = 0_2005565, Time = 180.31 sec. 
Writing OUTPUT_TOUR_FILE: "baseline_results/cvrp_lkh/Vrp-Set-X-n411/Vrp-Set-X-n411-lkh/0.lkh1.tour" ... done
Population:
  1: 0_2005565
Run 1: Cost = 0_2005565, Time = 180.41 sec. 

Successes/Runs = 0/1 
Cost.min = 2005565, Cost.avg = 2005565.00, Cost.max = 2005565
Gap.min = 0.0000%, Gap.avg = 0.0000%, Gap.max = 0.0000%
Penalty.min = 0, Penalty.avg = 0.00, Penalty.max = 0
Trials.min = 10000, Trials.avg = 10000.0, Trials.max = 10000
Time.min = 180.41 sec., Time.avg = 180.41 sec., Time.max = 180.41 sec.
Time.total = 180.62 sec.
  Size.min = 9, Size.max = 44, Penalty = 0
  Cost.min = 16122, Cost.max = 226084, Cost.sum = 2005565
Best CVRP solution:
  Cost = 0_2005565

