experiment/data/lkh-res/Vrp-Set-X-n411/Vrp-Set-X-n411-lkh/0.lkh1.tour
NAME : 0.2005565.tour
COMMENT : Length = 2005565
COMMENT : Found by LKH-3 [Keld Helsgaun] Tue Apr  9 08:00:56 2024
TYPE : TOUR
DIMENSION : 429
TOUR_SECTION
1
34
184
61
125
140
139
240
5
258
426
40
321
95
28
101
53
335
187
387
289
109
151
58
156
20
282
241
347
174
287
113
32
234
118
229
50
428
332
334
351
75
102
16
9
194
149
215
207
160
427
365
161
2
122
27
408
246
249
391
280
425
400
232
38
45
306
217
228
168
208
10
273
275
200
62
72
67
21
392
54
86
206
81
103
415
361
348
272
291
98
398
108
112
171
227
6
183
264
397
205
145
271
219
209
83
417
366
274
381
393
100
325
407
237
3
35
256
236
14
155
59
141
185
70
416
317
293
331
253
225
84
254
352
305
137
320
304
82
18
130
353
401
245
172
230
313
339
295
378
213
303
116
418
316
42
409
343
340
80
24
22
329
288
268
180
358
364
251
49
47
363
406
119
277
414
105
107
368
192
360
336
93
318
389
11
8
212
43
342
390
294
31
195
424
203
296
355
63
134
106
7
301
13
68
259
121
315
421
123
163
74
91
377
278
60
96
345
337
41
126
173
297
69
48
29
330
143
402
369
267
23
311
181
199
196
372
110
423
239
87
222
262
310
114
15
132
152
37
279
362
117
214
120
138
154
367
388
312
281
238
429
354
224
65
4
55
188
19
308
265
221
283
250
248
129
104
412
170
169
33
89
383
349
300
242
263
73
133
211
341
111
266
309
376
79
162
99
326
12
136
244
419
338
356
396
135
88
260
247
373
350
319
370
25
64
94
127
235
327
411
413
346
128
157
333
166
371
359
148
292
210
290
76
261
202
57
186
233
167
189
164
26
179
142
197
165
223
124
44
66
30
176
420
276
216
328
243
147
324
218
220
410
77
405
255
78
131
231
357
146
382
144
46
395
270
51
198
394
257
56
204
307
52
252
182
284
201
153
403
193
298
190
39
71
323
178
399
422
92
97
226
191
285
380
150
85
299
404
375
17
36
158
269
384
379
175
159
322
374
115
302
314
385
286
344
90
386
177
-1
EOF
